db/inputs/221406192312361100588213759753218192.smt2
(set-logic QF_FP)
(declare-const x0 (_ FloatingPoint 11 53))
(declare-const x1 (_ FloatingPoint 11 53))
(declare-const x2 (_ FloatingPoint 11 53))
(declare-const x3 (_ FloatingPoint 11 53))
(declare-const x4 (_ FloatingPoint 11 53))
(declare-const x5 (_ FloatingPoint 11 53))
(declare-const x6 (_ FloatingPoint 11 53))
(declare-const x7 (_ FloatingPoint 11 53))
(declare-const x8 (_ FloatingPoint 11 53))
(declare-const x9 (_ FloatingPoint 11 53))
(declare-const x10 (_ FloatingPoint 11 53))
(declare-const x11 (_ FloatingPoint 11 53))
(declare-const x12 (_ FloatingPoint 11 53))
(declare-const x13 (_ FloatingPoint 11 53))
(declare-const x14 (_ FloatingPoint 11 53))
(declare-const x15 (_ FloatingPoint 11 53))
(declare-const x16 (_ FloatingPoint 11 53))
(declare-const x17 (_ FloatingPoint 11 53))
(declare-const x18 (_ FloatingPoint 11 53))
(declare-const x19 (_ FloatingPoint 11 53))
(declare-const x20 (_ FloatingPoint 11 53))
(declare-const x21 (_ FloatingPoint 11 53))
(assert (fp.eq (fp.neg x11) (fp.neg x20)))
(assert (fp.gt (fp.neg x18) (fp.div RNE x21 x6)))
(assert (fp.leq (fp.div RNE x17 x17) (fp.neg x7)))
(assert (fp.eq (fp.div RNE x19 x6) (fp.add RNE x5 x16)))
(assert (fp.eq (fp.mul RNE x15 x20) (fp.neg x18)))
(assert (fp.lt (fp.mul RNE x16 x21) (fp.sub RNE x14 x18)))
(assert (fp.lt (fp.mul RNE x1 x0) (fp.mul RNE x15 x12)))
(assert (fp.gt (fp.mul RNE x10 x13) (fp.add RNE x12 x4)))
(assert (fp.lt (fp.add RNE x12 x6) (fp.mul RNE x5 x21)))
(assert (fp.leq (fp.div RNE x6 x8) (fp.neg x15)))
(assert (fp.eq (fp.div RNE x0 x15) (fp.div RNE x10 x8)))
(assert (fp.lt (fp.mul RNE x13 x6) (fp.neg x17)))
(assert (fp.gt (fp.div RNE x3 x18) (fp.add RNE x17 x14)))
(assert (fp.lt (fp.div RNE x7 x12) (fp.sub RNE x14 x11)))
(assert (fp.eq (fp.neg x6) (fp.mul RNE x0 x11)))
(assert (fp.eq (fp.mul RNE x5 x15) (fp.add RNE x12 x14)))
(check-sat)
