db/data/221406192312361100588213759753218192.z3.out
-------------------
2500.097252108
